This is Ipopt version 3.14.16, running with linear solver MUMPS 5.7.3.

Number of nonzeros in equality constraint Jacobian...:        0
Number of nonzeros in inequality constraint Jacobian.:      918
Number of nonzeros in Lagrangian Hessian.............:        0

Total number of variables............................:       27
                     variables with only lower bounds:        0
                variables with lower and upper bounds:       27
                     variables with only upper bounds:        0
Total number of equality constraints.................:        0
Total number of inequality constraints...............:       34
        inequality constraints with only lower bounds:        0
   inequality constraints with lower and upper bounds:        0
        inequality constraints with only upper bounds:       34

iter    objective    inf_pr   inf_du lg(mu)  ||d||  lg(rg) alpha_du alpha_pr  ls
   0  3.4305162e-03 1.31e+00 1.00e+00   0.0 0.00e+00    -  0.00e+00 0.00e+00   0
   1  3.4781300e-03 0.00e+00 4.63e-02  -5.8 9.17e-03    -  9.55e-01 1.00e+00h  1
   2  3.4766288e-03 0.00e+00 1.52e-02  -7.1 6.62e-04    -  9.83e-01 1.00e+00h  1
   3  3.4661605e-03 0.00e+00 2.27e-04  -4.6 3.18e-02    -  9.95e-01 1.00e+00h  1
   4  3.4032071e-03 0.00e+00 2.40e-04  -5.3 1.41e-01    -  9.96e-01 1.00e+00h  1
   5  3.3672604e-03 0.00e+00 6.16e-04  -5.9 1.43e-01    -  9.97e-01 1.00e+00h  1
   6  3.3641033e-03 0.00e+00 3.55e-04  -6.0 8.60e-03    -  1.00e+00 1.00e+00h  1
   7  3.3613504e-03 0.00e+00 4.60e-04  -6.2 1.29e-02    -  1.00e+00 1.00e+00h  1
   8  3.3556222e-03 0.00e+00 3.37e-04  -6.6 1.76e-02    -  1.00e+00 1.00e+00h  1
   9  3.3513034e-03 0.00e+00 4.30e-04  -6.1 1.54e-01    -  3.57e-01 1.84e-01h  2
iter    objective    inf_pr   inf_du lg(mu)  ||d||  lg(rg) alpha_du alpha_pr  ls
  10  3.3311549e-03 6.24e-03 5.41e-04  -6.6 1.13e-01    -  1.00e+00 1.00e+00h  1
  11  3.3276866e-03 4.48e-03 1.55e-03  -4.8 3.83e+00    -  4.62e-01 4.16e-02h  2
  12  3.2858809e-03 1.98e-02 1.39e-03  -4.9 6.60e-01    -  9.97e-01 7.79e-01h  1
  13  3.1034964e-03 1.16e+00 3.18e-03  -5.0 1.81e+00    -  7.58e-01 7.83e-01h  1
  14  3.0651232e-03 0.00e+00 2.40e-03  -4.8 1.47e+00    -  1.00e+00 7.33e-01h  1
  15  3.2490095e-03 0.00e+00 9.15e-04  -4.6 1.23e+00    -  9.62e-01 1.00e+00h  1
  16  3.1788148e-03 4.83e-04 1.58e-03  -4.7 5.19e-01    -  1.00e+00 1.00e+00h  1
  17  3.0036400e-03 1.33e-01 8.35e-04  -5.1 7.54e-01    -  9.99e-01 1.00e+00h  1
  18  2.9216459e-03 1.19e-01 7.17e-04  -5.6 9.58e-01    -  1.00e+00 1.00e+00h  1
  19  2.9417550e-03 0.00e+00 5.64e-04  -5.3 4.78e-01    -  1.00e+00 1.00e+00h  1
iter    objective    inf_pr   inf_du lg(mu)  ||d||  lg(rg) alpha_du alpha_pr  ls
  20  2.8764781e-03 7.12e-02 3.13e-04  -6.1 5.38e-01    -  1.00e+00 1.00e+00h  1
  21  2.9087791e-03 0.00e+00 1.20e-03  -5.7 3.89e-01    -  1.00e+00 1.00e+00h  1
  22  2.8875034e-03 0.00e+00 2.93e-04  -5.8 1.65e-01    -  1.00e+00 1.00e+00h  1
  23  2.8759549e-03 0.00e+00 1.00e-03  -6.1 2.54e-01    -  1.00e+00 1.00e+00h  1
  24  2.8711965e-03 0.00e+00 1.97e-04  -6.2 3.33e-01    -  1.00e+00 1.00e+00h  1
  25  2.8725082e-03 0.00e+00 6.10e-04  -6.3 4.29e-01    -  9.87e-01 1.00e+00H  1
  26  2.8699683e-03 0.00e+00 7.96e-04  -6.5 5.76e-01    -  7.71e-01 3.39e-01h  2
  27  2.8715610e-03 0.00e+00 7.12e-04  -5.7 1.08e+00    -  1.00e+00 1.46e-01h  2
  28  2.8842364e-03 0.00e+00 6.02e-04  -5.9 3.45e-01    -  9.84e-01 1.00e+00h  1
  29  2.8834530e-03 0.00e+00 4.26e-04  -5.9 2.89e-01    -  1.00e+00 1.00e+00h  1
iter    objective    inf_pr   inf_du lg(mu)  ||d||  lg(rg) alpha_du alpha_pr  ls
  30  2.8822281e-03 0.00e+00 3.15e-04  -5.9 6.47e-01    -  1.00e+00 2.44e-01h  3
  31  2.8824975e-03 8.77e-03 5.23e-04  -5.9 1.22e-01    -  1.00e+00 1.00e+00h  1
  32  2.8820806e-03 2.58e-03 3.11e-04  -5.9 7.18e-02    -  1.00e+00 5.00e-01h  2
  33  2.8818721e-03 0.00e+00 3.58e-04  -5.9 1.35e-01    -  8.86e-01 1.00e+00h  1
  34  2.8814479e-03 0.00e+00 5.50e-05  -5.9 1.43e-01    -  1.00e+00 1.00e+00h  1

Number of Iterations....: 34

                                   (scaled)                 (unscaled)
Objective...............:   2.8814479429398101e-03    2.8814479429398101e-03
Dual infeasibility......:   5.5040446878306401e-05    5.5040446878306401e-05
Constraint violation....:   0.0000000000000000e+00    0.0000000000000000e+00
Variable bound violation:   0.0000000000000000e+00    0.0000000000000000e+00
Complementarity.........:   1.3225640550065634e-06    1.3225640550065634e-06
Overall NLP error.......:   5.5040446878306401e-05    5.5040446878306401e-05


Number of objective function evaluations             = 53
Number of objective gradient evaluations             = 35
Number of equality constraint evaluations            = 0
Number of inequality constraint evaluations          = 53
Number of equality constraint Jacobian evaluations   = 0
Number of inequality constraint Jacobian evaluations = 35
Number of Lagrangian Hessian evaluations             = 0
Total seconds in IPOPT                               = 12.267

EXIT: Optimal Solution Found.
